\ENCODING=ISO-8859-1
\Problem name: ilog.cplex

Maximize
 obj: 9 x_ijk_0_0_0 + 5 x_ijk_0_1_0 + 15 x_ijk_1_0_0 + 15 x_ijk_1_1_0
      + 14 x_ijk_1_2_0 + 20 x_ijk_2_0_0 + 16 x_ijk_2_1_0 + 13 x_ijk_2_2_0
      + 2 x_ijk_2_3_0 + 9 x_ijk_3_0_0 + 18 x_ijk_3_1_0 + 12 x_ijk_4_0_0
      + 10 x_ijk_4_1_0 + 20 x_ijk_4_2_0 + 2 x_ijk_4_3_0 + 16 x_ijk_5_0_0
      + 20 x_ijk_5_1_0 + 11 x_ijk_5_2_0 + 6 x_ijk_5_3_0 + 9 x_ijk_5_4_0
      + 20 x_ijk_6_0_0 + 16 x_ijk_6_1_0 + 7 x_ijk_7_0_0 + 15 x_ijk_7_1_0
      + 10 x_ijk_7_2_0 + 12 x_ijk_7_3_0 + 18 x_ijk_7_4_0 + 14 x_ijk_8_0_0
      + 12 x_ijk_8_1_0 + 19 x_ijk_8_2_0 + 15 x_ijk_9_0_0 + 2 x_ijk_9_1_0
      + 15 x_ijk_9_2_0 + 9 x_ijk_0_0_1 + 5 x_ijk_0_1_1 + 15 x_ijk_1_0_1
      + 15 x_ijk_1_1_1 + 14 x_ijk_1_2_1 + 20 x_ijk_2_0_1 + 16 x_ijk_2_1_1
      + 13 x_ijk_2_2_1 + 2 x_ijk_2_3_1 + 9 x_ijk_3_0_1 + 18 x_ijk_3_1_1
      + 12 x_ijk_4_0_1 + 10 x_ijk_4_1_1 + 20 x_ijk_4_2_1 + 2 x_ijk_4_3_1
      + 16 x_ijk_5_0_1 + 20 x_ijk_5_1_1 + 11 x_ijk_5_2_1 + 6 x_ijk_5_3_1
      + 9 x_ijk_5_4_1 + 20 x_ijk_6_0_1 + 16 x_ijk_6_1_1 + 7 x_ijk_7_0_1
      + 15 x_ijk_7_1_1 + 10 x_ijk_7_2_1 + 12 x_ijk_7_3_1 + 18 x_ijk_7_4_1
      + 14 x_ijk_8_0_1 + 12 x_ijk_8_1_1 + 19 x_ijk_8_2_1 + 15 x_ijk_9_0_1
      + 2 x_ijk_9_1_1 + 15 x_ijk_9_2_1 + 9 x_ijk_0_0_2 + 5 x_ijk_0_1_2
      + 15 x_ijk_1_0_2 + 15 x_ijk_1_1_2 + 14 x_ijk_1_2_2 + 20 x_ijk_2_0_2
      + 16 x_ijk_2_1_2 + 13 x_ijk_2_2_2 + 2 x_ijk_2_3_2 + 9 x_ijk_3_0_2
      + 18 x_ijk_3_1_2 + 12 x_ijk_4_0_2 + 10 x_ijk_4_1_2 + 20 x_ijk_4_2_2
      + 2 x_ijk_4_3_2 + 16 x_ijk_5_0_2 + 20 x_ijk_5_1_2 + 11 x_ijk_5_2_2
      + 6 x_ijk_5_3_2 + 9 x_ijk_5_4_2 + 20 x_ijk_6_0_2 + 16 x_ijk_6_1_2
      + 7 x_ijk_7_0_2 + 15 x_ijk_7_1_2 + 10 x_ijk_7_2_2 + 12 x_ijk_7_3_2
      + 18 x_ijk_7_4_2 + 14 x_ijk_8_0_2 + 12 x_ijk_8_1_2 + 19 x_ijk_8_2_2
      + 15 x_ijk_9_0_2 + 2 x_ijk_9_1_2 + 15 x_ijk_9_2_2
Subject To
 c1:  4 x_ijk_0_0_0 + 2 x_ijk_0_1_0 + 14 x_ijk_1_0_0 + 35 x_ijk_1_1_0
      + 10 x_ijk_1_2_0 + 31 x_ijk_2_0_0 + 20 x_ijk_2_1_0 + 10 x_ijk_2_2_0
      + 39 x_ijk_2_3_0 + 5 x_ijk_3_0_0 + 29 x_ijk_3_1_0 + 9 x_ijk_4_0_0
      + 20 x_ijk_4_1_0 + 32 x_ijk_4_2_0 + 36 x_ijk_4_3_0 + 27 x_ijk_5_0_0
      + 36 x_ijk_5_1_0 + 22 x_ijk_5_2_0 + 15 x_ijk_5_3_0 + 33 x_ijk_5_4_0
      + 19 x_ijk_6_0_0 + 22 x_ijk_6_1_0 + 27 x_ijk_7_0_0 + 21 x_ijk_7_1_0
      + 13 x_ijk_7_2_0 + 15 x_ijk_7_3_0 + 22 x_ijk_7_4_0 + 11 x_ijk_8_0_0
      + 2 x_ijk_8_1_0 + 26 x_ijk_8_2_0 + 27 x_ijk_9_0_0 + 7 x_ijk_9_1_0
      + 7 x_ijk_9_2_0 <= 39
 c2:  32 x_ijk_0_0_1 + 5 x_ijk_0_1_1 + 4 x_ijk_1_0_1 + 11 x_ijk_1_1_1
      + 4 x_ijk_1_2_1 + 33 x_ijk_2_0_1 + 6 x_ijk_2_1_1 + 33 x_ijk_2_2_1
      + 16 x_ijk_2_3_1 + 28 x_ijk_3_0_1 + 27 x_ijk_3_1_1 + 21 x_ijk_4_0_1
      + 27 x_ijk_4_1_1 + 8 x_ijk_4_2_1 + 25 x_ijk_4_3_1 + 23 x_ijk_5_0_1
      + 10 x_ijk_5_1_1 + 15 x_ijk_5_2_1 + 9 x_ijk_5_3_1 + 33 x_ijk_5_4_1
      + x_ijk_6_0_1 + 8 x_ijk_6_1_1 + 2 x_ijk_7_0_1 + 21 x_ijk_7_1_1
      + 21 x_ijk_7_2_1 + 13 x_ijk_7_3_1 + 8 x_ijk_7_4_1 + 16 x_ijk_8_0_1
      + 3 x_ijk_8_1_1 + 13 x_ijk_8_2_1 + 2 x_ijk_9_0_1 + 31 x_ijk_9_1_1
      + 9 x_ijk_9_2_1 <= 33
 c3:  3 x_ijk_0_0_2 + 6 x_ijk_0_1_2 + 6 x_ijk_1_0_2 + 3 x_ijk_1_1_2
      + 17 x_ijk_1_2_2 + 8 x_ijk_2_0_2 + 4 x_ijk_2_1_2 + 3 x_ijk_2_2_2
      + 8 x_ijk_2_3_2 + 4 x_ijk_3_0_2 + 22 x_ijk_3_1_2 + 8 x_ijk_4_0_2
      + 12 x_ijk_4_1_2 + 11 x_ijk_4_2_2 + 16 x_ijk_4_3_2 + 23 x_ijk_5_0_2
      + 5 x_ijk_5_1_2 + 4 x_ijk_5_2_2 + 5 x_ijk_5_3_2 + 11 x_ijk_5_4_2
      + 10 x_ijk_6_0_2 + 3 x_ijk_6_1_2 + 24 x_ijk_7_0_2 + 8 x_ijk_7_1_2
      + 8 x_ijk_7_2_2 + 4 x_ijk_7_3_2 + 24 x_ijk_7_4_2 + 11 x_ijk_8_0_2
      + 3 x_ijk_8_1_2 + 10 x_ijk_8_2_2 + 23 x_ijk_9_0_2 + 4 x_ijk_9_1_2
      + 5 x_ijk_9_2_2 <= 24
 c4:  x_ijk_0_0_0 + x_ijk_0_1_0 <= 1
 c5:  x_ijk_0_0_1 + x_ijk_0_1_1 <= 1
 c6:  x_ijk_0_0_2 + x_ijk_0_1_2 <= 1
 c7:  x_ijk_1_0_0 + x_ijk_1_1_0 + x_ijk_1_2_0 <= 1
 c8:  x_ijk_1_0_1 + x_ijk_1_1_1 + x_ijk_1_2_1 <= 1
 c9:  x_ijk_1_0_2 + x_ijk_1_1_2 + x_ijk_1_2_2 <= 1
 c10: x_ijk_2_0_0 + x_ijk_2_1_0 + x_ijk_2_2_0 + x_ijk_2_3_0 <= 1
 c11: x_ijk_2_0_1 + x_ijk_2_1_1 + x_ijk_2_2_1 + x_ijk_2_3_1 <= 1
 c12: x_ijk_2_0_2 + x_ijk_2_1_2 + x_ijk_2_2_2 + x_ijk_2_3_2 <= 1
 c13: x_ijk_3_0_0 + x_ijk_3_1_0 <= 1
 c14: x_ijk_3_0_1 + x_ijk_3_1_1 <= 1
 c15: x_ijk_3_0_2 + x_ijk_3_1_2 <= 1
 c16: x_ijk_4_0_0 + x_ijk_4_1_0 + x_ijk_4_2_0 + x_ijk_4_3_0 <= 1
 c17: x_ijk_4_0_1 + x_ijk_4_1_1 + x_ijk_4_2_1 + x_ijk_4_3_1 <= 1
 c18: x_ijk_4_0_2 + x_ijk_4_1_2 + x_ijk_4_2_2 + x_ijk_4_3_2 <= 1
 c19: x_ijk_5_0_0 + x_ijk_5_1_0 + x_ijk_5_2_0 + x_ijk_5_3_0 + x_ijk_5_4_0 <= 1
 c20: x_ijk_5_0_1 + x_ijk_5_1_1 + x_ijk_5_2_1 + x_ijk_5_3_1 + x_ijk_5_4_1 <= 1
 c21: x_ijk_5_0_2 + x_ijk_5_1_2 + x_ijk_5_2_2 + x_ijk_5_3_2 + x_ijk_5_4_2 <= 1
 c22: x_ijk_6_0_0 + x_ijk_6_1_0 <= 1
 c23: x_ijk_6_0_1 + x_ijk_6_1_1 <= 1
 c24: x_ijk_6_0_2 + x_ijk_6_1_2 <= 1
 c25: x_ijk_7_0_0 + x_ijk_7_1_0 + x_ijk_7_2_0 + x_ijk_7_3_0 + x_ijk_7_4_0 <= 1
 c26: x_ijk_7_0_1 + x_ijk_7_1_1 + x_ijk_7_2_1 + x_ijk_7_3_1 + x_ijk_7_4_1 <= 1
 c27: x_ijk_7_0_2 + x_ijk_7_1_2 + x_ijk_7_2_2 + x_ijk_7_3_2 + x_ijk_7_4_2 <= 1
 c28: x_ijk_8_0_0 + x_ijk_8_1_0 + x_ijk_8_2_0 <= 1
 c29: x_ijk_8_0_1 + x_ijk_8_1_1 + x_ijk_8_2_1 <= 1
 c30: x_ijk_8_0_2 + x_ijk_8_1_2 + x_ijk_8_2_2 <= 1
 c31: x_ijk_9_0_0 + x_ijk_9_1_0 + x_ijk_9_2_0 <= 1
 c32: x_ijk_9_0_1 + x_ijk_9_1_1 + x_ijk_9_2_1 <= 1
 c33: x_ijk_9_0_2 + x_ijk_9_1_2 + x_ijk_9_2_2 <= 1
Bounds
 0 <= x_ijk_0_0_0 <= 1
 0 <= x_ijk_0_1_0 <= 1
 0 <= x_ijk_1_0_0 <= 1
 0 <= x_ijk_1_1_0 <= 1
 0 <= x_ijk_1_2_0 <= 1
 0 <= x_ijk_2_0_0 <= 1
 0 <= x_ijk_2_1_0 <= 1
 0 <= x_ijk_2_2_0 <= 1
 0 <= x_ijk_2_3_0 <= 1
 0 <= x_ijk_3_0_0 <= 1
 0 <= x_ijk_3_1_0 <= 1
 0 <= x_ijk_4_0_0 <= 1
 0 <= x_ijk_4_1_0 <= 1
 0 <= x_ijk_4_2_0 <= 1
 0 <= x_ijk_4_3_0 <= 1
 0 <= x_ijk_5_0_0 <= 1
 0 <= x_ijk_5_1_0 <= 1
 0 <= x_ijk_5_2_0 <= 1
 0 <= x_ijk_5_3_0 <= 1
 0 <= x_ijk_5_4_0 <= 1
 0 <= x_ijk_6_0_0 <= 1
 0 <= x_ijk_6_1_0 <= 1
 0 <= x_ijk_7_0_0 <= 1
 0 <= x_ijk_7_1_0 <= 1
 0 <= x_ijk_7_2_0 <= 1
 0 <= x_ijk_7_3_0 <= 1
 0 <= x_ijk_7_4_0 <= 1
 0 <= x_ijk_8_0_0 <= 1
 0 <= x_ijk_8_1_0 <= 1
 0 <= x_ijk_8_2_0 <= 1
 0 <= x_ijk_9_0_0 <= 1
 0 <= x_ijk_9_1_0 <= 1
 0 <= x_ijk_9_2_0 <= 1
 0 <= x_ijk_0_0_1 <= 1
 0 <= x_ijk_0_1_1 <= 1
 0 <= x_ijk_1_0_1 <= 1
 0 <= x_ijk_1_1_1 <= 1
 0 <= x_ijk_1_2_1 <= 1
 0 <= x_ijk_2_0_1 <= 1
 0 <= x_ijk_2_1_1 <= 1
 0 <= x_ijk_2_2_1 <= 1
 0 <= x_ijk_2_3_1 <= 1
 0 <= x_ijk_3_0_1 <= 1
 0 <= x_ijk_3_1_1 <= 1
 0 <= x_ijk_4_0_1 <= 1
 0 <= x_ijk_4_1_1 <= 1
 0 <= x_ijk_4_2_1 <= 1
 0 <= x_ijk_4_3_1 <= 1
 0 <= x_ijk_5_0_1 <= 1
 0 <= x_ijk_5_1_1 <= 1
 0 <= x_ijk_5_2_1 <= 1
 0 <= x_ijk_5_3_1 <= 1
 0 <= x_ijk_5_4_1 <= 1
 0 <= x_ijk_6_0_1 <= 1
 0 <= x_ijk_6_1_1 <= 1
 0 <= x_ijk_7_0_1 <= 1
 0 <= x_ijk_7_1_1 <= 1
 0 <= x_ijk_7_2_1 <= 1
 0 <= x_ijk_7_3_1 <= 1
 0 <= x_ijk_7_4_1 <= 1
 0 <= x_ijk_8_0_1 <= 1
 0 <= x_ijk_8_1_1 <= 1
 0 <= x_ijk_8_2_1 <= 1
 0 <= x_ijk_9_0_1 <= 1
 0 <= x_ijk_9_1_1 <= 1
 0 <= x_ijk_9_2_1 <= 1
 0 <= x_ijk_0_0_2 <= 1
 0 <= x_ijk_0_1_2 <= 1
 0 <= x_ijk_1_0_2 <= 1
 0 <= x_ijk_1_1_2 <= 1
 0 <= x_ijk_1_2_2 <= 1
 0 <= x_ijk_2_0_2 <= 1
 0 <= x_ijk_2_1_2 <= 1
 0 <= x_ijk_2_2_2 <= 1
 0 <= x_ijk_2_3_2 <= 1
 0 <= x_ijk_3_0_2 <= 1
 0 <= x_ijk_3_1_2 <= 1
 0 <= x_ijk_4_0_2 <= 1
 0 <= x_ijk_4_1_2 <= 1
 0 <= x_ijk_4_2_2 <= 1
 0 <= x_ijk_4_3_2 <= 1
 0 <= x_ijk_5_0_2 <= 1
 0 <= x_ijk_5_1_2 <= 1
 0 <= x_ijk_5_2_2 <= 1
 0 <= x_ijk_5_3_2 <= 1
 0 <= x_ijk_5_4_2 <= 1
 0 <= x_ijk_6_0_2 <= 1
 0 <= x_ijk_6_1_2 <= 1
 0 <= x_ijk_7_0_2 <= 1
 0 <= x_ijk_7_1_2 <= 1
 0 <= x_ijk_7_2_2 <= 1
 0 <= x_ijk_7_3_2 <= 1
 0 <= x_ijk_7_4_2 <= 1
 0 <= x_ijk_8_0_2 <= 1
 0 <= x_ijk_8_1_2 <= 1
 0 <= x_ijk_8_2_2 <= 1
 0 <= x_ijk_9_0_2 <= 1
 0 <= x_ijk_9_1_2 <= 1
 0 <= x_ijk_9_2_2 <= 1
Binaries
 x_ijk_0_0_0  x_ijk_0_1_0  x_ijk_1_0_0  x_ijk_1_1_0  x_ijk_1_2_0  x_ijk_2_0_0 
 x_ijk_2_1_0  x_ijk_2_2_0  x_ijk_2_3_0  x_ijk_3_0_0  x_ijk_3_1_0  x_ijk_4_0_0 
 x_ijk_4_1_0  x_ijk_4_2_0  x_ijk_4_3_0  x_ijk_5_0_0  x_ijk_5_1_0  x_ijk_5_2_0 
 x_ijk_5_3_0  x_ijk_5_4_0  x_ijk_6_0_0  x_ijk_6_1_0  x_ijk_7_0_0  x_ijk_7_1_0 
 x_ijk_7_2_0  x_ijk_7_3_0  x_ijk_7_4_0  x_ijk_8_0_0  x_ijk_8_1_0  x_ijk_8_2_0 
 x_ijk_9_0_0  x_ijk_9_1_0  x_ijk_9_2_0  x_ijk_0_0_1  x_ijk_0_1_1  x_ijk_1_0_1 
 x_ijk_1_1_1  x_ijk_1_2_1  x_ijk_2_0_1  x_ijk_2_1_1  x_ijk_2_2_1  x_ijk_2_3_1 
 x_ijk_3_0_1  x_ijk_3_1_1  x_ijk_4_0_1  x_ijk_4_1_1  x_ijk_4_2_1  x_ijk_4_3_1 
 x_ijk_5_0_1  x_ijk_5_1_1  x_ijk_5_2_1  x_ijk_5_3_1  x_ijk_5_4_1  x_ijk_6_0_1 
 x_ijk_6_1_1  x_ijk_7_0_1  x_ijk_7_1_1  x_ijk_7_2_1  x_ijk_7_3_1  x_ijk_7_4_1 
 x_ijk_8_0_1  x_ijk_8_1_1  x_ijk_8_2_1  x_ijk_9_0_1  x_ijk_9_1_1  x_ijk_9_2_1 
 x_ijk_0_0_2  x_ijk_0_1_2  x_ijk_1_0_2  x_ijk_1_1_2  x_ijk_1_2_2  x_ijk_2_0_2 
 x_ijk_2_1_2  x_ijk_2_2_2  x_ijk_2_3_2  x_ijk_3_0_2  x_ijk_3_1_2  x_ijk_4_0_2 
 x_ijk_4_1_2  x_ijk_4_2_2  x_ijk_4_3_2  x_ijk_5_0_2  x_ijk_5_1_2  x_ijk_5_2_2 
 x_ijk_5_3_2  x_ijk_5_4_2  x_ijk_6_0_2  x_ijk_6_1_2  x_ijk_7_0_2  x_ijk_7_1_2 
 x_ijk_7_2_2  x_ijk_7_3_2  x_ijk_7_4_2  x_ijk_8_0_2  x_ijk_8_1_2  x_ijk_8_2_2 
 x_ijk_9_0_2  x_ijk_9_1_2  x_ijk_9_2_2 
End
